% Generado automaticamente desde C:/Users/andres/Desktop/SEPTIMO SEMESTRE/ADAII/proyecto_final/Proyecto-Optimizacion-ADA2/BateriaPruebas_2025_2_P2/Prueba4.txt

n = 10;
m = 3;
ct = 25.0;
maxMovs = 5.0;
v = [0.739, 0.775, 0.99];
p = [4, 3, 3];
s = [| 1, 2, 1 | 0, 3, 0 | 2, 0, 1 |];
